63135
37,164,367,442,453,478,545,830,1084,1110,1133,1143,1268,1322,1325,1362,1459,1463,1609,2041,2108,2156,2242,2280,2301,2314,2356,2377,2384,2504,2640,2896,3032,3125,3193,3323,3460,3469,3521,3618,3623,3756,3823,3848,3952,4131,4138,4430,4456,4597,4679,4957,5092,5111,5143,5345,5356,5386,5440,5462,5466,5693,5762,5854,5931,5981,6020,6096,6259,6292,6307,6347,6376,6660,6862,6880,6921,7068,7318,7414,7511,7565,7589,7619,7620,7654,7658,7703,7711,7744,7881,7950,8238,8274,8334,8349,8408,8485,8512,8514,8557,8632,8678,8703,8730,8760,8802,8923,8932,8942,9079,9174,9238,9409,9418,9525,9596,9607,9673,9753,9933
